%0->1,1->32,2->98,3->104,4->109,5->112,6->120,7->148,8->151,9->156,10->157,11->159,12->162,13->169,14->176,15->191,16->173,17->95,18->133,19->108,20->192,21->134,22->181,23->141,24->147
25 91
1 2 3 4 5 6 7 8 9 10 11 12 13 14 15 16 17 18 19 20 21 22 23 24 
0 2 3 4 5 6 7 8 9 10 11 12 13 14 
0 1 5 16 
0 1 16 
0 1 5 7 15 17 18 
0 1 2 4 6 7 8 9 11 14 15 19 
0 1 5 7 8 10 11 12 13 14 20 
0 1 4 5 6 8 9 11 14 15 22 
0 1 5 6 7 11 12 13 15 17 23 
0 1 5 7 
0 1 6 11 12 14 16 17 21 23 
0 1 5 6 7 8 10 12 13 15 17 22 
0 1 6 8 10 11 18 
0 1 6 8 11 22 
0 1 5 6 7 10 15 20 21 
0 4 5 7 8 11 14 
0 2 3 10 24 
0 4 8 10 11 
0 4 12 
0 5 
0 6 14 
0 10 14 
0 7 11 13 
0 8 10 
0 16 
